sifdecoder -A pc64.lnx.gfo -st   GRIDNETE

 Problem name: GRIDNETE

 Double precision version will be formed

 The objective function uses 1 nonlinear group
 
 There are 3844 linear equality constraints
 
 There are 7564 free variables
 
 
 File successfully decoded
 CUTEST: tools (double precision version) compiled successfully
 CUTEst: ipopt (double precision version) compiled successfully

******************************************************************************
This program contains Ipopt, a library for large-scale nonlinear optimization.
 Ipopt is released as open source code under the Eclipse Public License (EPL).
         For more information visit http://projects.coin-or.org/Ipopt
******************************************************************************

This is Ipopt version trunk, running with linear solver ma57.

Number of nonzeros in equality constraint Jacobian...:    15128
Number of nonzeros in inequality constraint Jacobian.:        0
Number of nonzeros in Lagrangian Hessian.............:    15127

Total number of variables............................:     7564
                     variables with only lower bounds:        0
                variables with lower and upper bounds:        0
                     variables with only upper bounds:        0
Total number of equality constraints.................:     3844
Total number of inequality constraints...............:        0
        inequality constraints with only lower bounds:        0
   inequality constraints with lower and upper bounds:        0
        inequality constraints with only upper bounds:        0

iter    objective    inf_pr   inf_du lg(mu)  ||d||  lg(rg) alpha_du alpha_pr  ls
   0  7.5630000e+01 1.00e+01 0.00e+00  -1.0 0.00e+00    -  0.00e+00 0.00e+00   0
   1  2.0650477e+02 8.88e-16 1.08e-01  -1.0 5.27e+00    -  1.00e+00 1.00e+00h  1
   2  2.0648051e+02 8.88e-16 5.96e-05  -2.5 1.21e-01    -  1.00e+00 1.00e+00f  1
   3  2.0648051e+02 1.22e-15 8.04e-09  -5.7 1.08e-03    -  1.00e+00 1.00e+00f  1

Number of Iterations....: 3

                                   (scaled)                 (unscaled)
Objective...............:   2.0648050916152152e+02    2.0648050916152152e+02
Dual infeasibility......:   8.0418595393982883e-09    8.0418595393982883e-09
Constraint violation....:   1.2212453270876722e-15    1.2212453270876722e-15
Complementarity.........:   0.0000000000000000e+00    0.0000000000000000e+00
Overall NLP error.......:   8.0418595393982883e-09    8.0418595393982883e-09


Number of objective function evaluations             = 4
Number of objective gradient evaluations             = 4
Number of equality constraint evaluations            = 4
Number of inequality constraint evaluations          = 0
Number of equality constraint Jacobian evaluations   = 4
Number of inequality constraint Jacobian evaluations = 0
Number of Lagrangian Hessian evaluations             = 3
Total CPU secs in IPOPT (w/o function evaluations)   =      0.126
Total CPU secs in NLP function evaluations           =      0.008

EXIT: Optimal Solution Found.

************************ CUTEst statistics ************************


 Package used            :  IPOPT
 Problem                 :  GRIDNETE  
 # variables             =            7564
 # constraints           =            3844
 # objective functions   =        0.9000000E+01
 # objective gradients   =        0.5000000E+01
 # objective Hessians    =        0.4000000E+01
 # Hessian-vector prdct  =        0.0000000E+00
 # constraints functions =        0.1000000E+02
 # constraints gradients =        0.6000000E+01
 # constraints Hessians  =        0.4000000E+01
 Exit code               =               0
 Final f                 =        2.0648050916152152D+02
 Bounds feasibility      =        0.0000000000000000D+00
 Set up time             =            0.61 seconds
 Solve time              =            0.28 seconds


******************************************************************

